c Random Network
p min 10 20
n 1 1
n 10 -1
c Transformed from a max-flow problem.
a 	 5	4	0	16	0
a 	 5	2	0	50	0
a 	 5	8	0	6	0
a 	 7	2	0	30	0
a 	 10	4	0	40	0
a 	 2	3	0	18	0
a 	 3	1	0	19	0
a 	 3	6	0	7	0
a 	 3	5	0	36	0
a 	 1	3	0	29	0
a 	 4	7	0	32	0
a 	 1	2	0	29	0
a 	 8	3	0	15	0
a 	 8	5	0	14	0
a 	 4	8	0	27	0
a 	 7	9	0	23	0
a 	 7	1	0	17	0
a 	 4	5	0	1	0
a 	 7	4	0	42	0
a 	 5	3	0	16	0
